cases/matpower/case5_clm.m
ipopt
IVR
[info | PowerModels]: extending matpower format with data: branch_currents 7x2
[info | PowerModels]: extending matpower format by appending matrix "branch_currents" in to "branch"
[warn | PowerModels]: the voltage setpoint on generator 4 does not match the value at bus 4
[warn | PowerModels]: the voltage setpoint on generator 1 does not match the value at bus 1
[warn | PowerModels]: the voltage setpoint on generator 5 does not match the value at bus 10
[warn | PowerModels]: the voltage setpoint on generator 2 does not match the value at bus 1
[warn | PowerModels]: the voltage setpoint on generator 3 does not match the value at bus 3
[info | PowerModels]: removing 1 cost terms from generator 4: [4000.0, 0.0]
[info | PowerModels]: removing 1 cost terms from generator 1: [1400.0, 0.0]
[info | PowerModels]: removing 1 cost terms from generator 5: [1000.0, 0.0]
[info | PowerModels]: removing 1 cost terms from generator 2: [1500.0, 0.0]
[info | PowerModels]: removing 1 cost terms from generator 3: [3000.0, 0.0]

******************************************************************************
This program contains Ipopt, a library for large-scale nonlinear optimization.
 Ipopt is released as open source code under the Eclipse Public License (EPL).
         For more information visit http://projects.coin-or.org/Ipopt
******************************************************************************

This is Ipopt version 3.13.2, running with linear solver mumps.
NOTE: Other linear solvers might be more efficient (see Ipopt documentation).

Number of nonzeros in equality constraint Jacobian...:      347
Number of nonzeros in inequality constraint Jacobian.:      116
Number of nonzeros in Lagrangian Hessian.............:      236

Total number of variables............................:       48
                     variables with only lower bounds:        0
                variables with lower and upper bounds:       48
                     variables with only upper bounds:        0
Total number of equality constraints.................:       39
Total number of inequality constraints...............:       22
        inequality constraints with only lower bounds:       11
   inequality constraints with lower and upper bounds:        0
        inequality constraints with only upper bounds:       11

iter    objective    inf_pr   inf_du lg(mu)  ||d||  lg(rg) alpha_du alpha_pr  ls
   0  1.0059989e+02 3.99e+00 2.89e+01  -1.0 0.00e+00    -  0.00e+00 0.00e+00   0
   1  8.1462117e+03 2.48e+00 1.02e+02  -1.0 2.56e+00    -  4.01e-03 3.79e-01h  1
   2  5.9597658e+03 2.41e+00 9.90e+01  -1.0 3.09e+01    -  4.43e-02 2.82e-02f  1
   3  5.3487032e+03 2.35e+00 9.56e+01  -1.0 2.00e+01    -  2.24e-01 2.43e-02f  1
   4  5.2851470e+03 2.20e+00 8.78e+01  -1.0 9.38e+00    -  5.08e-01 6.51e-02f  1
   5  8.1331339e+03 1.10e+00 4.40e+01  -1.0 5.33e+00    -  8.81e-01 5.01e-01h  1
   6  8.2547870e+03 1.07e+00 5.73e+01  -1.0 7.71e+00    -  1.71e-01 2.37e-02h  1
   7  8.5457442e+03 1.03e+00 4.54e+01  -1.0 1.11e+01    -  1.13e-02 4.21e-02h  1
   8  1.6010188e+04 6.33e-02 1.76e+01  -1.0 2.69e+00    -  8.07e-01 9.38e-01h  1
   9  1.6525661e+04 4.21e-03 1.22e+00  -1.0 4.56e-01    -  9.56e-01 1.00e+00h  1
iter    objective    inf_pr   inf_du lg(mu)  ||d||  lg(rg) alpha_du alpha_pr  ls
  10  1.6527849e+04 6.61e-05 4.32e-03  -1.0 1.02e-01    -  1.00e+00 1.00e+00h  1
  11  1.6500606e+04 1.79e-03 4.21e-01  -2.5 3.13e-01    -  8.99e-01 9.90e-01f  1
  12  1.6497669e+04 1.64e-03 2.23e-01  -2.5 1.50e-01    -  1.00e+00 1.00e+00h  1
  13  1.6497830e+04 1.29e-04 1.98e-02  -2.5 4.66e-02    -  1.00e+00 1.00e+00h  1
  14  1.6496972e+04 4.84e-05 7.00e-03  -3.8 2.70e-02    -  1.00e+00 1.00e+00h  1
  15  1.6496990e+04 1.58e-07 8.67e-06  -3.8 1.50e-03    -  1.00e+00 1.00e+00h  1
  16  1.6496943e+04 1.42e-07 2.10e-05  -5.7 1.55e-03    -  1.00e+00 1.00e+00h  1
  17  1.6496943e+04 3.47e-12 3.26e-10  -5.7 5.08e-06    -  1.00e+00 1.00e+00h  1
  18  1.6496942e+04 2.06e-11 3.05e-09  -8.6 1.91e-05    -  1.00e+00 1.00e+00f  1

Number of Iterations....: 18

                                   (scaled)                 (unscaled)
Objective...............:   4.1242355187724729e+02    1.6496942075089890e+04
Dual infeasibility......:   3.0485452494255259e-09    1.2194180997702105e-07
Constraint violation....:   2.0608958983814318e-11    2.0608958983814318e-11
Complementarity.........:   2.6436311305857164e-09    1.0574524522342866e-07
Overall NLP error.......:   3.0485452494255259e-09    1.2194180997702105e-07


Number of objective function evaluations             = 19
Number of objective gradient evaluations             = 19
Number of equality constraint evaluations            = 19
Number of inequality constraint evaluations          = 19
Number of equality constraint Jacobian evaluations   = 19
Number of inequality constraint Jacobian evaluations = 19
Number of Lagrangian Hessian evaluations             = 18
Total CPU secs in IPOPT (w/o function evaluations)   =      1.296
Total CPU secs in NLP function evaluations           =      1.638

EXIT: Optimal Solution Found.
Time to Solution........:3.658385992050171
